num_features = 19;
num_usage_limits = 3;
num_plans = 4;
num_addons = 0;

features = ["dataSources", "databoards", "dataRefresh", "oneClickInteractions", "dashboardTemplates", "datablockLibrary", "databoardDesigner", "goalTracking", "alerts", "singleUrlDashboardCarousel", "scheduleEmailSnapshots", "nativeMobileApps", "tvDisplay", "slackIntegration", "annotations", "pushDataViaAPI", "queryBuilder", "dataCalculations", "sqlDatabaseIntegrations"];
usage_limits = ["dataSourcesLimit", "usersLimit", "databoardsLimit"];
plans = ["FREE", "BASIC", "PLUS", "BUSINESS"];
addons = [];

plans_prices = [0.0,59.0,119.0,299.0];
addons_prices = [];

plans_features = array2d(PLANS, FEATURES, [
    % FREE
    1,1,1,1,1,1,1,1,1,1,1,1,1,1,1,0,0,0,0,
    % BASIC
    1,1,1,1,1,1,1,1,1,1,1,1,1,1,1,1,0,0,0,
    % PLUS
    1,1,1,1,1,1,1,1,1,1,1,1,1,1,1,1,1,1,1,
    % BUSINESS
    1,1,1,1,1,1,1,1,1,1,1,1,1,1,1,1,1,1,1
]);
plans_usage_limits = array2d(PLANS, USAGE_LIMITS, [
    % FREE
    3,3,3,
    % BASIC
    10,10,10,
    % PLUS
    10,10,10,
    % BUSINESS
    50,20,50
]);

linked_features = array2d(USAGE_LIMITS, FEATURES, [
    % dataSourcesLimit
    1,0,0,0,0,0,0,0,0,0,0,0,0,0,0,0,0,0,0,
    % usersLimit
    0,0,0,0,0,0,0,0,0,0,0,0,0,0,0,0,0,0,0,
    % databoardsLimit
    0,1,0,0,0,0,0,0,0,0,0,0,0,0,0,0,0,0,0
]);

addons_features = array2d(ADDONS, FEATURES, [
]);
addons_usage_limits = array2d(ADDONS, USAGE_LIMITS, [
]);
addons_usage_limits_extensions = array2d(ADDONS, USAGE_LIMITS, [
]);
addons_available_for = array2d(ADDONS, PLANS, [
]);

addons_depends_on = array2d(ADDONS, ADDONS, [
]);